(set-info :smt-lib-version 2.6)
(set-info :source |Patrice Godefroid, SAGE (systematic dynamic test generation). For more information: http://research.microsoft.com/en-us/um/people/pg/public_psfiles/ndss2008.pdf|)
(set-info :category "industrial")
(set-info :status sat)
(set-logic QF_BV)
(declare-fun |T1@0|  () (_ BitVec 8))
(declare-fun |T1@1|  () (_ BitVec 8))
(declare-fun |T1@2|  () (_ BitVec 8))
(declare-fun |T1@3|  () (_ BitVec 8))
(declare-fun |T4@0|  () (_ BitVec 32))
(declare-fun |T1@454|  () (_ BitVec 8))
(declare-fun |T1@453|  () (_ BitVec 8))
(declare-fun |T1@452|  () (_ BitVec 8))
(declare-fun |T1@451|  () (_ BitVec 8))
(declare-fun |T1@450|  () (_ BitVec 8))
(declare-fun |T1@449|  () (_ BitVec 8))
(declare-fun |T1@448|  () (_ BitVec 8))
(declare-fun |T1@447|  () (_ BitVec 8))
(declare-fun |T1@446|  () (_ BitVec 8))
(declare-fun |T1@445|  () (_ BitVec 8))
(declare-fun |T1@444|  () (_ BitVec 8))
(declare-fun |T1@443|  () (_ BitVec 8))
(declare-fun |T1@442|  () (_ BitVec 8))
(declare-fun |T1@441|  () (_ BitVec 8))
(declare-fun |T1@440|  () (_ BitVec 8))
(declare-fun |T1@439|  () (_ BitVec 8))
(declare-fun |T1@438|  () (_ BitVec 8))
(declare-fun |T1@437|  () (_ BitVec 8))
(declare-fun |T1@436|  () (_ BitVec 8))
(declare-fun |T1@435|  () (_ BitVec 8))
(declare-fun |T1@434|  () (_ BitVec 8))
(declare-fun |T1@433|  () (_ BitVec 8))
(declare-fun |T1@432|  () (_ BitVec 8))
(declare-fun |T1@431|  () (_ BitVec 8))
(declare-fun |T1@430|  () (_ BitVec 8))
(declare-fun |T1@429|  () (_ BitVec 8))
(declare-fun |T1@428|  () (_ BitVec 8))
(declare-fun |T1@427|  () (_ BitVec 8))
(declare-fun |T1@426|  () (_ BitVec 8))
(declare-fun |T1@425|  () (_ BitVec 8))
(declare-fun |T1@424|  () (_ BitVec 8))
(declare-fun |T1@423|  () (_ BitVec 8))
(declare-fun |T1@422|  () (_ BitVec 8))
(declare-fun |T1@421|  () (_ BitVec 8))
(declare-fun |T1@420|  () (_ BitVec 8))
(declare-fun |T1@419|  () (_ BitVec 8))
(declare-fun |T1@418|  () (_ BitVec 8))
(declare-fun |T1@417|  () (_ BitVec 8))
(declare-fun |T1@416|  () (_ BitVec 8))
(declare-fun |T1@415|  () (_ BitVec 8))
(declare-fun |T1@414|  () (_ BitVec 8))
(declare-fun |T1@413|  () (_ BitVec 8))
(declare-fun |T1@412|  () (_ BitVec 8))
(declare-fun |T1@411|  () (_ BitVec 8))
(declare-fun |T1@410|  () (_ BitVec 8))
(declare-fun |T1@409|  () (_ BitVec 8))
(declare-fun |T1@408|  () (_ BitVec 8))
(declare-fun |T1@407|  () (_ BitVec 8))
(declare-fun |T1@406|  () (_ BitVec 8))
(declare-fun |T1@405|  () (_ BitVec 8))
(declare-fun |T1@404|  () (_ BitVec 8))
(declare-fun |T1@403|  () (_ BitVec 8))
(declare-fun |T1@402|  () (_ BitVec 8))
(declare-fun |T1@401|  () (_ BitVec 8))
(declare-fun |T1@400|  () (_ BitVec 8))
(declare-fun |T1@399|  () (_ BitVec 8))
(declare-fun |T1@398|  () (_ BitVec 8))
(declare-fun |T1@397|  () (_ BitVec 8))
(declare-fun |T1@396|  () (_ BitVec 8))
(declare-fun |T1@395|  () (_ BitVec 8))
(declare-fun |T1@394|  () (_ BitVec 8))
(declare-fun |T1@393|  () (_ BitVec 8))
(declare-fun |T1@392|  () (_ BitVec 8))
(declare-fun |T1@391|  () (_ BitVec 8))
(declare-fun |T1@390|  () (_ BitVec 8))
(declare-fun |T1@389|  () (_ BitVec 8))
(declare-fun |T1@388|  () (_ BitVec 8))
(declare-fun |T1@387|  () (_ BitVec 8))
(declare-fun |T1@386|  () (_ BitVec 8))
(declare-fun |T1@385|  () (_ BitVec 8))
(declare-fun |T1@384|  () (_ BitVec 8))
(declare-fun |T1@383|  () (_ BitVec 8))
(declare-fun |T1@382|  () (_ BitVec 8))
(declare-fun |T1@4|  () (_ BitVec 8))
(declare-fun |T1@455|  () (_ BitVec 8))
(declare-fun |T1@381|  () (_ BitVec 8))
(assert
(let ((?x4 ((_ zero_extend 24) |T1@0|)))
(let ((?x7 ((_ zero_extend 24) |T1@1|)))
(let ((?x9 ((_ zero_extend 24) |T1@2|)))
(let ((?x11 ((_ zero_extend 24) |T1@3|)))
(let ((?x12 (bvshl ?x11 (_ bv8 32))))
(let ((?x13 (bvor ?x12 ?x9)))
(let ((?x14 (bvshl ?x13 (_ bv8 32))))
(let ((?x15 (bvor ?x14 ?x7)))
(let ((?x16 (bvshl ?x15 (_ bv8 32))))
(let ((?x17 (bvor ?x16 ?x4)))
(= |T4@0| ?x17))))))))))))
(assert
(let ((?x71 ((_ zero_extend 24) |T1@454|)))
(let ((?x73 ((_ zero_extend 24) (_ bv113 8))))
(let ((?x75 ((_ zero_extend 24) |T1@453|)))
(let ((?x77 ((_ zero_extend 24) |T1@452|)))
(let ((?x79 ((_ zero_extend 24) |T1@451|)))
(let ((?x81 ((_ zero_extend 24) |T1@450|)))
(let ((?x83 ((_ zero_extend 24) |T1@449|)))
(let ((?x85 ((_ zero_extend 24) |T1@448|)))
(let ((?x87 ((_ zero_extend 24) |T1@447|)))
(let ((?x89 ((_ zero_extend 24) |T1@446|)))
(let ((?x91 ((_ zero_extend 24) |T1@445|)))
(let ((?x93 ((_ zero_extend 24) |T1@444|)))
(let ((?x95 ((_ zero_extend 24) |T1@443|)))
(let ((?x97 ((_ zero_extend 24) |T1@442|)))
(let ((?x99 ((_ zero_extend 24) |T1@441|)))
(let ((?x101 ((_ zero_extend 24) |T1@440|)))
(let ((?x103 ((_ zero_extend 24) |T1@439|)))
(let ((?x105 ((_ zero_extend 24) |T1@438|)))
(let ((?x107 ((_ zero_extend 24) |T1@437|)))
(let ((?x109 ((_ zero_extend 24) |T1@436|)))
(let ((?x111 ((_ zero_extend 24) |T1@435|)))
(let ((?x113 ((_ zero_extend 24) |T1@434|)))
(let ((?x115 ((_ zero_extend 24) |T1@433|)))
(let ((?x117 ((_ zero_extend 24) |T1@432|)))
(let ((?x119 ((_ zero_extend 24) |T1@431|)))
(let ((?x121 ((_ zero_extend 24) |T1@430|)))
(let ((?x123 ((_ zero_extend 24) |T1@429|)))
(let ((?x125 ((_ zero_extend 24) |T1@428|)))
(let ((?x127 ((_ zero_extend 24) |T1@427|)))
(let ((?x129 ((_ zero_extend 24) |T1@426|)))
(let ((?x131 ((_ zero_extend 24) |T1@425|)))
(let ((?x133 ((_ zero_extend 24) |T1@424|)))
(let ((?x135 ((_ zero_extend 24) |T1@423|)))
(let ((?x137 ((_ zero_extend 24) |T1@422|)))
(let ((?x139 ((_ zero_extend 24) |T1@421|)))
(let ((?x141 ((_ zero_extend 24) |T1@420|)))
(let ((?x143 ((_ zero_extend 24) |T1@419|)))
(let ((?x145 ((_ zero_extend 24) |T1@418|)))
(let ((?x147 ((_ zero_extend 24) |T1@417|)))
(let ((?x149 ((_ zero_extend 24) |T1@416|)))
(let ((?x151 ((_ zero_extend 24) |T1@415|)))
(let ((?x153 ((_ zero_extend 24) |T1@414|)))
(let ((?x155 ((_ zero_extend 24) |T1@413|)))
(let ((?x157 ((_ zero_extend 24) |T1@412|)))
(let ((?x159 ((_ zero_extend 24) |T1@411|)))
(let ((?x161 ((_ zero_extend 24) |T1@410|)))
(let ((?x163 ((_ zero_extend 24) |T1@409|)))
(let ((?x165 ((_ zero_extend 24) |T1@408|)))
(let ((?x167 ((_ zero_extend 24) |T1@407|)))
(let ((?x169 ((_ zero_extend 24) |T1@406|)))
(let ((?x171 ((_ zero_extend 24) |T1@405|)))
(let ((?x173 ((_ zero_extend 24) |T1@404|)))
(let ((?x175 ((_ zero_extend 24) |T1@403|)))
(let ((?x177 ((_ zero_extend 24) |T1@402|)))
(let ((?x179 ((_ zero_extend 24) |T1@401|)))
(let ((?x181 ((_ zero_extend 24) |T1@400|)))
(let ((?x183 ((_ zero_extend 24) |T1@399|)))
(let ((?x185 ((_ zero_extend 24) |T1@398|)))
(let ((?x187 ((_ zero_extend 24) |T1@397|)))
(let ((?x189 ((_ zero_extend 24) |T1@396|)))
(let ((?x191 ((_ zero_extend 24) |T1@395|)))
(let ((?x193 ((_ zero_extend 24) |T1@394|)))
(let ((?x195 ((_ zero_extend 24) |T1@393|)))
(let ((?x197 ((_ zero_extend 24) |T1@392|)))
(let ((?x199 ((_ zero_extend 24) |T1@391|)))
(let ((?x201 ((_ zero_extend 24) |T1@390|)))
(let ((?x203 ((_ zero_extend 24) |T1@389|)))
(let ((?x205 ((_ zero_extend 24) |T1@388|)))
(let ((?x207 ((_ zero_extend 24) |T1@387|)))
(let ((?x209 ((_ zero_extend 24) |T1@386|)))
(let ((?x211 ((_ zero_extend 24) |T1@385|)))
(let ((?x213 ((_ zero_extend 24) |T1@384|)))
(let ((?x215 ((_ zero_extend 24) |T1@383|)))
(let ((?x217 ((_ zero_extend 24) |T1@382|)))
(let ((?x218 (bvmul ?x217 ?x73)))
(let ((?x219 (bvadd ?x218 ?x215)))
(let ((?x220 (bvmul ?x219 ?x73)))
(let ((?x221 (bvadd ?x220 ?x213)))
(let ((?x222 (bvmul ?x221 ?x73)))
(let ((?x223 (bvadd ?x222 ?x211)))
(let ((?x224 (bvmul ?x223 ?x73)))
(let ((?x225 (bvadd ?x224 ?x209)))
(let ((?x226 (bvmul ?x225 ?x73)))
(let ((?x227 (bvadd ?x226 ?x207)))
(let ((?x228 (bvmul ?x227 ?x73)))
(let ((?x229 (bvadd ?x228 ?x205)))
(let ((?x230 (bvmul ?x229 ?x73)))
(let ((?x231 (bvadd ?x230 ?x203)))
(let ((?x232 (bvmul ?x231 ?x73)))
(let ((?x233 (bvadd ?x232 ?x201)))
(let ((?x234 (bvmul ?x233 ?x73)))
(let ((?x235 (bvadd ?x234 ?x199)))
(let ((?x236 (bvmul ?x235 ?x73)))
(let ((?x237 (bvadd ?x236 ?x197)))
(let ((?x238 (bvmul ?x237 ?x73)))
(let ((?x239 (bvadd ?x238 ?x195)))
(let ((?x240 (bvmul ?x239 ?x73)))
(let ((?x241 (bvadd ?x240 ?x193)))
(let ((?x242 (bvmul ?x241 ?x73)))
(let ((?x243 (bvadd ?x242 ?x191)))
(let ((?x244 (bvmul ?x243 ?x73)))
(let ((?x245 (bvadd ?x244 ?x189)))
(let ((?x246 (bvmul ?x245 ?x73)))
(let ((?x247 (bvadd ?x246 ?x187)))
(let ((?x248 (bvmul ?x247 ?x73)))
(let ((?x249 (bvadd ?x248 ?x185)))
(let ((?x250 (bvmul ?x249 ?x73)))
(let ((?x251 (bvadd ?x250 ?x183)))
(let ((?x252 (bvmul ?x251 ?x73)))
(let ((?x253 (bvadd ?x252 ?x181)))
(let ((?x254 (bvmul ?x253 ?x73)))
(let ((?x255 (bvadd ?x254 ?x179)))
(let ((?x256 (bvmul ?x255 ?x73)))
(let ((?x257 (bvadd ?x256 ?x177)))
(let ((?x258 (bvmul ?x257 ?x73)))
(let ((?x259 (bvadd ?x258 ?x175)))
(let ((?x260 (bvmul ?x259 ?x73)))
(let ((?x261 (bvadd ?x260 ?x173)))
(let ((?x262 (bvmul ?x261 ?x73)))
(let ((?x263 (bvadd ?x262 ?x171)))
(let ((?x264 (bvmul ?x263 ?x73)))
(let ((?x265 (bvadd ?x264 ?x169)))
(let ((?x266 (bvmul ?x265 ?x73)))
(let ((?x267 (bvadd ?x266 ?x167)))
(let ((?x268 (bvmul ?x267 ?x73)))
(let ((?x269 (bvadd ?x268 ?x165)))
(let ((?x270 (bvmul ?x269 ?x73)))
(let ((?x271 (bvadd ?x270 ?x163)))
(let ((?x272 (bvmul ?x271 ?x73)))
(let ((?x273 (bvadd ?x272 ?x161)))
(let ((?x274 (bvmul ?x273 ?x73)))
(let ((?x275 (bvadd ?x274 ?x159)))
(let ((?x276 (bvmul ?x275 ?x73)))
(let ((?x277 (bvadd ?x276 ?x157)))
(let ((?x278 (bvmul ?x277 ?x73)))
(let ((?x279 (bvadd ?x278 ?x155)))
(let ((?x280 (bvmul ?x279 ?x73)))
(let ((?x281 (bvadd ?x280 ?x153)))
(let ((?x282 (bvmul ?x281 ?x73)))
(let ((?x283 (bvadd ?x282 ?x151)))
(let ((?x284 (bvmul ?x283 ?x73)))
(let ((?x285 (bvadd ?x284 ?x149)))
(let ((?x286 (bvmul ?x285 ?x73)))
(let ((?x287 (bvadd ?x286 ?x147)))
(let ((?x288 (bvmul ?x287 ?x73)))
(let ((?x289 (bvadd ?x288 ?x145)))
(let ((?x290 (bvmul ?x289 ?x73)))
(let ((?x291 (bvadd ?x290 ?x143)))
(let ((?x292 (bvmul ?x291 ?x73)))
(let ((?x293 (bvadd ?x292 ?x141)))
(let ((?x294 (bvmul ?x293 ?x73)))
(let ((?x295 (bvadd ?x294 ?x139)))
(let ((?x296 (bvmul ?x295 ?x73)))
(let ((?x297 (bvadd ?x296 ?x137)))
(let ((?x298 (bvmul ?x297 ?x73)))
(let ((?x299 (bvadd ?x298 ?x135)))
(let ((?x300 (bvmul ?x299 ?x73)))
(let ((?x301 (bvadd ?x300 ?x133)))
(let ((?x302 (bvmul ?x301 ?x73)))
(let ((?x303 (bvadd ?x302 ?x131)))
(let ((?x304 (bvmul ?x303 ?x73)))
(let ((?x305 (bvadd ?x304 ?x129)))
(let ((?x306 (bvmul ?x305 ?x73)))
(let ((?x307 (bvadd ?x306 ?x127)))
(let ((?x308 (bvmul ?x307 ?x73)))
(let ((?x309 (bvadd ?x308 ?x125)))
(let ((?x310 (bvmul ?x309 ?x73)))
(let ((?x311 (bvadd ?x310 ?x123)))
(let ((?x312 (bvmul ?x311 ?x73)))
(let ((?x313 (bvadd ?x312 ?x121)))
(let ((?x314 (bvmul ?x313 ?x73)))
(let ((?x315 (bvadd ?x314 ?x119)))
(let ((?x316 (bvmul ?x315 ?x73)))
(let ((?x317 (bvadd ?x316 ?x117)))
(let ((?x318 (bvmul ?x317 ?x73)))
(let ((?x319 (bvadd ?x318 ?x115)))
(let ((?x320 (bvmul ?x319 ?x73)))
(let ((?x321 (bvadd ?x320 ?x113)))
(let ((?x322 (bvmul ?x321 ?x73)))
(let ((?x323 (bvadd ?x322 ?x111)))
(let ((?x324 (bvmul ?x323 ?x73)))
(let ((?x325 (bvadd ?x324 ?x109)))
(let ((?x326 (bvmul ?x325 ?x73)))
(let ((?x327 (bvadd ?x326 ?x107)))
(let ((?x328 (bvmul ?x327 ?x73)))
(let ((?x329 (bvadd ?x328 ?x105)))
(let ((?x330 (bvmul ?x329 ?x73)))
(let ((?x331 (bvadd ?x330 ?x103)))
(let ((?x332 (bvmul ?x331 ?x73)))
(let ((?x333 (bvadd ?x332 ?x101)))
(let ((?x334 (bvmul ?x333 ?x73)))
(let ((?x335 (bvadd ?x334 ?x99)))
(let ((?x336 (bvmul ?x335 ?x73)))
(let ((?x337 (bvadd ?x336 ?x97)))
(let ((?x338 (bvmul ?x337 ?x73)))
(let ((?x339 (bvadd ?x338 ?x95)))
(let ((?x340 (bvmul ?x339 ?x73)))
(let ((?x341 (bvadd ?x340 ?x93)))
(let ((?x342 (bvmul ?x341 ?x73)))
(let ((?x343 (bvadd ?x342 ?x91)))
(let ((?x344 (bvmul ?x343 ?x73)))
(let ((?x345 (bvadd ?x344 ?x89)))
(let ((?x346 (bvmul ?x345 ?x73)))
(let ((?x347 (bvadd ?x346 ?x87)))
(let ((?x348 (bvmul ?x347 ?x73)))
(let ((?x349 (bvadd ?x348 ?x85)))
(let ((?x350 (bvmul ?x349 ?x73)))
(let ((?x351 (bvadd ?x350 ?x83)))
(let ((?x352 (bvmul ?x351 ?x73)))
(let ((?x353 (bvadd ?x352 ?x81)))
(let ((?x354 (bvmul ?x353 ?x73)))
(let ((?x355 (bvadd ?x354 ?x79)))
(let ((?x356 (bvmul ?x355 ?x73)))
(let ((?x357 (bvadd ?x356 ?x77)))
(let ((?x358 (bvmul ?x357 ?x73)))
(let ((?x359 (bvadd ?x358 ?x75)))
(let ((?x360 (bvmul ?x359 ?x73)))
(let ((?x361 (bvadd ?x360 ?x71)))
(let ((?x363 ((_ zero_extend 24) |T1@4|)))
(let ((?x11 ((_ zero_extend 24) |T1@3|)))
(let ((?x9 ((_ zero_extend 24) |T1@2|)))
(let ((?x364 (bvmul ?x9 ?x73)))
(let ((?x365 (bvadd ?x364 ?x11)))
(let ((?x366 (bvmul ?x365 ?x73)))
(let ((?x367 (bvadd ?x366 ?x363)))
(= ?x367 ?x361)))))))))))))))))))))))))))))))))))))))))))))))))))))))))))))))))))))))))))))))))))))))))))))))))))))))))))))))))))))))))))))))))))))))))))))))))))))))))))))))))))))))))))))))))))))))))))))))))))))))))))))))))))))))))))))))))))
(assert
(let ((?x8338 ((_ zero_extend 24) |T1@455|)))
(= ?x8338 (_ bv34 32))))
(assert
(let ((?x8338 ((_ zero_extend 24) |T1@455|)))
(bvsle ?x8338 (_ bv34 32))))
(assert
(let ((?x8338 ((_ zero_extend 24) |T1@455|)))
(bvslt ?x8338 (_ bv40 32))))
(assert
(let ((?x8352 ((_ zero_extend 8) |T1@381|)))
(let ((?x8353 ((_ zero_extend 8) |T1@455|)))
(= ?x8353 ?x8352))))
(assert
(let ((?x8359 ((_ zero_extend 24) |T1@381|)))
(= ?x8359 (_ bv34 32))))
(assert
(let ((?x217 ((_ zero_extend 24) |T1@382|)))
(let (($x8365 (= ?x217 (_ bv60 32))))
(not $x8365))))
(assert
(let ((?x217 ((_ zero_extend 24) |T1@382|)))
(let (($x8373 (= ?x217 (_ bv38 32))))
(not $x8373))))
(assert
(let ((?x8352 ((_ zero_extend 8) |T1@381|)))
(let ((?x8380 ((_ zero_extend 8) |T1@382|)))
(let (($x8381 (= ?x8380 ?x8352)))
(not $x8381)))))
(assert
(let ((?x8390 (bvmul (_ bv4294967295 32) (_ bv1 32))))
(let ((?x8392 ((_ zero_extend 24) (_ bv1 8))))
(let ((?x8394 (bvmul (_ bv4294967295 32) (_ bv208 32))))
(let ((?x4 ((_ zero_extend 24) |T1@0|)))
(let ((?x8395 (bvadd ?x4 ?x8394)))
(let (($x8396 (bvsgt ?x8395 (_ bv0 32))))
(let ((?x8397 (ite  $x8396 (_ bv1 8) (_ bv0 8))))
(let ((?x8398 ((_ zero_extend 24) ?x8397)))
(let ((?x8399 (bvshl ?x8398 ?x8392)))
(let ((?x8400 (bvadd ?x8399 ?x8390)))
(let (($x8401 (= ?x8400 (_ bv0 32))))
(not $x8401)))))))))))))
(assert
(let ((?x8422 ((_ zero_extend 8) |T1@1|)))
(let ((?x8424 ((_ zero_extend 8) |T1@0|)))
(let ((?x8425 (bvmul ?x8424 (_ bv256 16))))
(let ((?x8426 (bvadd ?x8425 ?x8422)))
(let ((?x8427 ((_ extract 15 8) ?x8426)))
(let ((?x8428 ((_ zero_extend 24) ?x8427)))
(let ((?x8429 (bvshl ?x8428 (_ bv8 32))))
(let ((?x8430 ((_ extract 7 0) ?x8426)))
(let ((?x8431 ((_ zero_extend 24) ?x8430)))
(let ((?x8432 (bvadd ?x8431 ?x8429)))
(let (($x8433 (= ?x8432 (_ bv60 32))))
(not $x8433)))))))))))))
(assert
(let ((?x8497 (bvmul (_ bv4294967295 32) (_ bv45 32))))
(let ((?x8498 ((_ sign_extend 24) |T1@1|)))
(let ((?x8499 (bvadd ?x8498 ?x8497)))
(let (($x8500 (= ?x8499 (_ bv0 32))))
(not $x8500))))))
(assert
(let ((?x8509 (bvmul (_ bv4294967295 32) (_ bv102 32))))
(let ((?x8498 ((_ sign_extend 24) |T1@1|)))
(let ((?x8510 (bvadd ?x8498 ?x8509)))
(let (($x8511 (= ?x8510 (_ bv0 32))))
(not $x8511))))))
(assert
(let ((?x8520 (bvmul (_ bv4294967295 32) (_ bv114 32))))
(let ((?x8498 ((_ sign_extend 24) |T1@1|)))
(let ((?x8521 (bvadd ?x8498 ?x8520)))
(let (($x8522 (= ?x8521 (_ bv0 32))))
(not $x8522))))))
(assert
(let ((?x8531 (bvmul (_ bv4294967295 32) (_ bv33 32))))
(let ((?x8498 ((_ sign_extend 24) |T1@1|)))
(let ((?x8532 (bvadd ?x8498 ?x8531)))
(let (($x8533 (= ?x8532 (_ bv0 32))))
(not $x8533))))))
(assert
(let ((?x8542 (bvmul (_ bv4294967295 32) (_ bv47 32))))
(let ((?x8498 ((_ sign_extend 24) |T1@1|)))
(let ((?x8543 (bvadd ?x8498 ?x8542)))
(let (($x8544 (= ?x8543 (_ bv0 32))))
(not $x8544))))))
(assert
(let ((?x8553 (bvmul (_ bv4294967295 32) (_ bv105 32))))
(let ((?x8498 ((_ sign_extend 24) |T1@1|)))
(let ((?x8554 (bvadd ?x8498 ?x8553)))
(let (($x8555 (= ?x8554 (_ bv0 32))))
(not $x8555))))))
(assert
(let ((?x8564 (bvmul (_ bv4294967295 32) (_ bv112 32))))
(let ((?x8498 ((_ sign_extend 24) |T1@1|)))
(let ((?x8565 (bvadd ?x8498 ?x8564)))
(let (($x8566 (= ?x8565 (_ bv0 32))))
(not $x8566))))))
(assert
(let ((?x8575 (bvmul (_ bv4294967295 32) (_ bv97 32))))
(let ((?x8498 ((_ sign_extend 24) |T1@1|)))
(let ((?x8576 (bvadd ?x8498 ?x8575)))
(let (($x8577 (= ?x8576 (_ bv0 32))))
(not $x8577))))))
(assert
(let ((?x8586 (bvmul (_ bv4294967295 32) (_ bv98 32))))
(let ((?x8498 ((_ sign_extend 24) |T1@1|)))
(let ((?x8587 (bvadd ?x8498 ?x8586)))
(let (($x8588 (= ?x8587 (_ bv0 32))))
(not $x8588))))))
(assert
(let ((?x8597 (bvmul (_ bv4294967295 32) (_ bv116 32))))
(let ((?x8498 ((_ sign_extend 24) |T1@1|)))
(let ((?x8598 (bvadd ?x8498 ?x8597)))
(let (($x8599 (= ?x8598 (_ bv0 32))))
(not $x8599))))))
(assert
(let ((?x8608 (bvmul (_ bv4294967295 32) (_ bv104 32))))
(let ((?x8498 ((_ sign_extend 24) |T1@1|)))
(let ((?x8609 (bvadd ?x8498 ?x8608)))
(let (($x8610 (= ?x8609 (_ bv0 32))))
(not $x8610))))))
(assert
(let ((?x8619 (bvmul (_ bv4294967295 32) (_ bv115 32))))
(let ((?x8498 ((_ sign_extend 24) |T1@1|)))
(let ((?x8620 (bvadd ?x8498 ?x8619)))
(let (($x8621 (= ?x8620 (_ bv0 32))))
(not $x8621))))))
(assert
(let ((?x8631 (bvmul (_ bv4294967295 32) (_ bv65 32))))
(let ((?x8498 ((_ sign_extend 24) |T1@1|)))
(let ((?x8632 (bvadd ?x8498 ?x8631)))
(bvugt ?x8632 (_ bv25 32))))))
(assert
(let ((?x8640 (bvmul (_ bv4294967295 32) (_ bv103 32))))
(let ((?x8641 ((_ sign_extend 24) |T1@0|)))
(let ((?x8642 (bvadd ?x8641 ?x8640)))
(let (($x8643 (= ?x8642 (_ bv0 32))))
(not $x8643))))))
(assert
(let ((?x8608 (bvmul (_ bv4294967295 32) (_ bv104 32))))
(let ((?x8651 ((_ sign_extend 24) |T1@2|)))
(let ((?x8652 (bvadd ?x8651 ?x8608)))
(let (($x8653 (= ?x8652 (_ bv0 32))))
(not $x8653))))))
(assert
(let ((?x8497 (bvmul (_ bv4294967295 32) (_ bv45 32))))
(let ((?x8651 ((_ sign_extend 24) |T1@2|)))
(let ((?x8660 (bvadd ?x8651 ?x8497)))
(let (($x8661 (= ?x8660 (_ bv0 32))))
(not $x8661))))))
(assert
(let ((?x8631 (bvmul (_ bv4294967295 32) (_ bv65 32))))
(let ((?x8651 ((_ sign_extend 24) |T1@2|)))
(let ((?x8668 (bvadd ?x8651 ?x8631)))
(bvugt ?x8668 (_ bv25 32))))))
(assert
(let ((?x7 ((_ zero_extend 24) |T1@1|)))
(let ((?x8675 (bvadd ?x7 (_ bv4294901762 32))))
(bvugt ?x8675 (_ bv1 32)))))
(assert
(let ((?x8682 (bvand |T1@1| (_ bv128 8))))
(= ?x8682 (_ bv0 8))))
(assert
(let ((?x8422 ((_ zero_extend 8) |T1@1|)))
(let ((?x8424 ((_ zero_extend 8) |T1@0|)))
(let ((?x8425 (bvmul ?x8424 (_ bv256 16))))
(let ((?x8426 (bvadd ?x8425 ?x8422)))
(let (($x8685 (= ?x8426 (_ bv65279 16))))
(not $x8685)))))))
(assert
(let ((?x8422 ((_ zero_extend 8) |T1@1|)))
(let ((?x8424 ((_ zero_extend 8) |T1@0|)))
(let ((?x8425 (bvmul ?x8424 (_ bv256 16))))
(let ((?x8426 (bvadd ?x8425 ?x8422)))
(let (($x8692 (= ?x8426 (_ bv61371 16))))
(not $x8692)))))))
(assert
(let ((?x8422 ((_ zero_extend 8) |T1@1|)))
(let ((?x8424 ((_ zero_extend 8) |T1@0|)))
(let ((?x8425 (bvmul ?x8424 (_ bv256 16))))
(let ((?x8426 (bvadd ?x8425 ?x8422)))
(let (($x8699 (= ?x8426 (_ bv11073 16))))
(not $x8699)))))))
(assert
(let ((?x8422 ((_ zero_extend 8) |T1@1|)))
(let ((?x8424 ((_ zero_extend 8) |T1@0|)))
(let ((?x8425 (bvmul ?x8424 (_ bv256 16))))
(let ((?x8426 (bvadd ?x8425 ?x8422)))
(let (($x8706 (= ?x8426 (_ bv19567 16))))
(not $x8706)))))))
(assert
(let ((?x8422 ((_ zero_extend 8) |T1@1|)))
(let ((?x8424 ((_ zero_extend 8) |T1@0|)))
(let ((?x8425 (bvmul ?x8424 (_ bv256 16))))
(let ((?x8426 (bvadd ?x8425 ?x8422)))
(let (($x8713 (= ?x8426 (_ bv15360 16))))
(not $x8713)))))))
(assert
(let ((?x8422 ((_ zero_extend 8) |T1@1|)))
(let ((?x8424 ((_ zero_extend 8) |T1@0|)))
(let ((?x8425 (bvmul ?x8424 (_ bv256 16))))
(let ((?x8426 (bvadd ?x8425 ?x8422)))
(let (($x8720 (= ?x8426 (_ bv65534 16))))
(not $x8720)))))))
(assert
(let ((?x8422 ((_ zero_extend 8) |T1@1|)))
(let ((?x8424 ((_ zero_extend 8) |T1@0|)))
(let ((?x8425 (bvmul ?x8424 (_ bv256 16))))
(let ((?x8426 (bvadd ?x8425 ?x8422)))
(let (($x8726 (= ?x8426 (_ bv0 16))))
(not $x8726)))))))
(assert
(let ((?x8498 ((_ sign_extend 24) |T1@1|)))
(let (($x8732 (= ?x8498 (_ bv45 32))))
(not $x8732))))
(assert
(let ((?x8498 ((_ sign_extend 24) |T1@1|)))
(let (($x8734 (= ?x8498 (_ bv102 32))))
(not $x8734))))
(assert
(let ((?x8498 ((_ sign_extend 24) |T1@1|)))
(let (($x8736 (= ?x8498 (_ bv114 32))))
(not $x8736))))
(assert
(let ((?x8498 ((_ sign_extend 24) |T1@1|)))
(let (($x8738 (= ?x8498 (_ bv33 32))))
(not $x8738))))
(assert
(let ((?x8498 ((_ sign_extend 24) |T1@1|)))
(let (($x8740 (= ?x8498 (_ bv47 32))))
(not $x8740))))
(assert
(let ((?x8498 ((_ sign_extend 24) |T1@1|)))
(let (($x8742 (= ?x8498 (_ bv105 32))))
(not $x8742))))
(assert
(let ((?x8498 ((_ sign_extend 24) |T1@1|)))
(let (($x8744 (= ?x8498 (_ bv112 32))))
(not $x8744))))
(assert
(let ((?x8498 ((_ sign_extend 24) |T1@1|)))
(let (($x8746 (= ?x8498 (_ bv97 32))))
(not $x8746))))
(assert
(let ((?x8498 ((_ sign_extend 24) |T1@1|)))
(let (($x8748 (= ?x8498 (_ bv98 32))))
(not $x8748))))
(assert
(let ((?x8498 ((_ sign_extend 24) |T1@1|)))
(let (($x8750 (= ?x8498 (_ bv116 32))))
(not $x8750))))
(assert
(let ((?x8498 ((_ sign_extend 24) |T1@1|)))
(let (($x8752 (= ?x8498 (_ bv104 32))))
(not $x8752))))
(assert
(let ((?x8498 ((_ sign_extend 24) |T1@1|)))
(let (($x8754 (= ?x8498 (_ bv115 32))))
(not $x8754))))
(assert
(let ((?x8498 ((_ sign_extend 24) |T1@1|)))
(= ?x8498 (_ bv63 32))))
(assert
(let ((?x8498 ((_ sign_extend 24) |T1@1|)))
(let (($x8759 (= ?x8498 (_ bv0 32))))
(not $x8759))))
(assert
(let ((?x4 ((_ zero_extend 24) |T1@0|)))
(let ((?x8763 (bvadd ?x4 (_ bv4294901762 32))))
(bvugt ?x8763 (_ bv1 32)))))
(assert
(let ((?x8769 (bvand |T1@0| (_ bv128 8))))
(= ?x8769 (_ bv0 8))))
(assert
(let ((?x8775 (bvmul (_ bv4294967295 32) (_ bv31 32))))
(let ((?x4 ((_ zero_extend 24) |T1@0|)))
(let ((?x8776 (bvadd ?x4 ?x8775)))
(let (($x8777 (= ?x8776 (_ bv0 32))))
(not $x8777))))))
(assert
(let ((?x8786 (bvmul (_ bv4294967295 32) (_ bv80 32))))
(let ((?x4 ((_ zero_extend 24) |T1@0|)))
(let ((?x8787 (bvadd ?x4 ?x8786)))
(let (($x8788 (= ?x8787 (_ bv0 32))))
(not $x8788))))))
(assert
(let ((?x8797 (bvmul (_ bv4294967295 32) (_ bv137 32))))
(let ((?x4 ((_ zero_extend 24) |T1@0|)))
(let ((?x8798 (bvadd ?x4 ?x8797)))
(let (($x8799 (= ?x8798 (_ bv0 32))))
(not $x8799))))))
(assert
(let ((?x8808 (bvmul (_ bv4294967295 32) (_ bv77 32))))
(let ((?x4 ((_ zero_extend 24) |T1@0|)))
(let ((?x8809 (bvadd ?x4 ?x8808)))
(let (($x8810 (= ?x8809 (_ bv0 32))))
(not $x8810))))))
(assert
(let ((?x8819 (bvmul (_ bv4294967295 32) (_ bv73 32))))
(let ((?x4 ((_ zero_extend 24) |T1@0|)))
(let ((?x8820 (bvadd ?x4 ?x8819)))
(let (($x8821 (= ?x8820 (_ bv0 32))))
(not $x8821))))))
(assert
(let ((?x8830 (bvmul (_ bv4294967295 32) (_ bv66 32))))
(let ((?x4 ((_ zero_extend 24) |T1@0|)))
(let ((?x8831 (bvadd ?x4 ?x8830)))
(let (($x8832 (= ?x8831 (_ bv0 32))))
(not $x8832))))))
(assert
(let ((?x8586 (bvmul (_ bv4294967295 32) (_ bv98 32))))
(let ((?x4 ((_ zero_extend 24) |T1@0|)))
(let ((?x8840 (bvadd ?x4 ?x8586)))
(let (($x8841 (= ?x8840 (_ bv0 32))))
(not $x8841))))))
(assert
(let ((?x8849 (bvmul (_ bv4294967295 32) (_ bv123 32))))
(let ((?x4 ((_ zero_extend 24) |T1@0|)))
(let ((?x8850 (bvadd ?x4 ?x8849)))
(let (($x8851 (= ?x8850 (_ bv0 32))))
(not $x8851))))))
(assert
(let ((?x8860 (bvmul (_ bv4294967295 32) (_ bv37 32))))
(let ((?x4 ((_ zero_extend 24) |T1@0|)))
(let ((?x8861 (bvadd ?x4 ?x8860)))
(let (($x8862 (= ?x8861 (_ bv0 32))))
(not $x8862))))))
(assert
(let ((?x8394 (bvmul (_ bv4294967295 32) (_ bv208 32))))
(let ((?x4 ((_ zero_extend 24) |T1@0|)))
(let ((?x8395 (bvadd ?x4 ?x8394)))
(let (($x8870 (= ?x8395 (_ bv0 32))))
(not $x8870))))))
(assert
(let ((?x8877 (bvmul (_ bv4294967295 32) (_ bv72 32))))
(let ((?x8878 ((_ sign_extend 24) |T1@3|)))
(let ((?x8879 (bvadd ?x8878 ?x8877)))
(let (($x8880 (= ?x8879 (_ bv0 32))))
(not $x8880))))))
(assert
(let ((?x8889 (bvmul (_ bv4294967295 32) (_ bv13 32))))
(let ((?x8878 ((_ sign_extend 24) |T1@3|)))
(let ((?x8890 (bvadd ?x8878 ?x8889)))
(let (($x8891 (= ?x8890 (_ bv0 32))))
(not $x8891))))))
(assert
(let ((?x8808 (bvmul (_ bv4294967295 32) (_ bv77 32))))
(let ((?x8878 ((_ sign_extend 24) |T1@3|)))
(let ((?x8899 (bvadd ?x8878 ?x8808)))
(let (($x8900 (= ?x8899 (_ bv0 32))))
(not $x8900))))))
(assert
(let ((?x8878 ((_ sign_extend 24) |T1@3|)))
(let ((?x8908 (bvadd ?x8878 (_ bv32 32))))
(let (($x8909 (= ?x8908 (_ bv104 32))))
(not $x8909)))))
(assert
(let ((?x8878 ((_ sign_extend 24) |T1@3|)))
(let ((?x8908 (bvadd ?x8878 (_ bv32 32))))
(let (($x8914 (= ?x8908 (_ bv45 32))))
(not $x8914)))))
(assert
(let ((?x8878 ((_ sign_extend 24) |T1@3|)))
(let ((?x8908 (bvadd ?x8878 (_ bv32 32))))
(let (($x8919 (= ?x8908 (_ bv109 32))))
(not $x8919)))))
(assert
(let ((?x8878 ((_ sign_extend 24) |T1@3|)))
(let ((?x8908 (bvadd ?x8878 (_ bv32 32))))
(let (($x8923 (= ?x8908 (_ bv0 32))))
(not $x8923)))))
(assert
(let ((?x8631 (bvmul (_ bv4294967295 32) (_ bv65 32))))
(let ((?x8878 ((_ sign_extend 24) |T1@3|)))
(let ((?x8930 (bvadd ?x8878 ?x8631)))
(bvule ?x8930 (_ bv25 32))))))
(assert
(let ((?x9 ((_ zero_extend 24) |T1@2|)))
(let ((?x8934 (bvadd ?x9 (_ bv4294901762 32))))
(bvugt ?x8934 (_ bv1 32)))))
(assert
(let ((?x8940 (bvand |T1@2| (_ bv128 8))))
(= ?x8940 (_ bv0 8))))
(assert
(let ((?x8651 ((_ sign_extend 24) |T1@2|)))
(let (($x8945 (= ?x8651 (_ bv104 32))))
(not $x8945))))
(assert
(let ((?x8651 ((_ sign_extend 24) |T1@2|)))
(let (($x8947 (= ?x8651 (_ bv45 32))))
(not $x8947))))
(assert
(let ((?x8651 ((_ sign_extend 24) |T1@2|)))
(= ?x8651 (_ bv120 32))))
(assert
(let ((?x8651 ((_ sign_extend 24) |T1@2|)))
(let (($x8952 (= ?x8651 (_ bv0 32))))
(not $x8952))))
(assert
(let ((?x7 ((_ zero_extend 24) |T1@1|)))
(= ?x7 (_ bv63 32))))
(assert
(let ((?x7 ((_ zero_extend 24) |T1@1|)))
(let (($x8960 (= ?x7 (_ bv33 32))))
(not $x8960))))
(assert
(let ((?x7 ((_ zero_extend 24) |T1@1|)))
(let (($x8967 (= ?x7 (_ bv47 32))))
(not $x8967))))
(assert
(let ((?x7 ((_ zero_extend 24) |T1@1|)))
(bvsle ?x7 (_ bv63 32))))
(assert
(let ((?x7 ((_ zero_extend 24) |T1@1|)))
(bvuge ?x7 (_ bv32 32))))
(assert
(let ((?x7 ((_ zero_extend 24) |T1@1|)))
(let (($x8980 (= ?x7 (_ bv32 32))))
(not $x8980))))
(assert
(let ((?x7 ((_ zero_extend 24) |T1@1|)))
(bvsgt ?x7 (_ bv13 32))))
(assert
(let (($x8991 (= |T1@1| (_ bv99 8))))
(not $x8991)))
(assert
(let (($x8995 (= |T1@1| (_ bv60 8))))
(not $x8995)))
(assert
(bvult |T1@1| (_ bv128 8)))
(assert
(bvuge |T1@1| (_ bv32 8)))
(assert
(let (($x9004 (= |T1@1| (_ bv9 8))))
(not $x9004)))
(assert
(let (($x9009 (= |T1@1| (_ bv12 8))))
(not $x9009)))
(assert
(let (($x9014 (= |T1@1| (_ bv13 8))))
(not $x9014)))
(assert
(let (($x9019 (= |T1@1| (_ bv10 8))))
(not $x9019)))
(assert
(let ((?x8424 ((_ zero_extend 8) |T1@0|)))
(= ?x8424 (_ bv60 16))))
(assert
(let ((?x4 ((_ zero_extend 24) |T1@0|)))
(bvuge ?x4 (_ bv32 32))))
(assert
(let ((?x4 ((_ zero_extend 24) |T1@0|)))
(let (($x9030 (= ?x4 (_ bv32 32))))
(not $x9030))))
(assert
(let ((?x4 ((_ zero_extend 24) |T1@0|)))
(bvsgt ?x4 (_ bv13 32))))
(assert
(let (($x9041 (= |T1@0| (_ bv31 8))))
(not $x9041)))
(assert
(let (($x9046 (= |T1@0| (_ bv80 8))))
(not $x9046)))
(assert
(let (($x9051 (= |T1@0| (_ bv137 8))))
(not $x9051)))
(assert
(let (($x9056 (= |T1@0| (_ bv77 8))))
(not $x9056)))
(assert
(let (($x9061 (= |T1@0| (_ bv73 8))))
(not $x9061)))
(assert
(let (($x9066 (= |T1@0| (_ bv66 8))))
(not $x9066)))
(assert
(let (($x9071 (= |T1@0| (_ bv255 8))))
(not $x9071)))
(assert
(let (($x9076 (= |T1@0| (_ bv98 8))))
(not $x9076)))
(assert
(let (($x9081 (= |T1@0| (_ bv123 8))))
(not $x9081)))
(assert
(let (($x9086 (= |T1@0| (_ bv37 8))))
(not $x9086)))
(assert
(let (($x9090 (= |T1@0| (_ bv0 8))))
(not $x9090)))
(assert
(= |T1@0| (_ bv60 8)))
(assert
(bvult |T1@0| (_ bv128 8)))
(assert
(bvuge |T1@0| (_ bv32 8)))
(assert
(let (($x9099 (= |T1@0| (_ bv9 8))))
(not $x9099)))
(assert
(let (($x9103 (= |T1@0| (_ bv12 8))))
(not $x9103)))
(assert
(let (($x9107 (= |T1@0| (_ bv13 8))))
(not $x9107)))
(assert
(let (($x9111 (= |T1@0| (_ bv10 8))))
(not $x9111)))
(assert
(let (($x9116 (= |T1@0| (_ bv67 8))))
(not $x9116)))
(assert
(let ((?x11 ((_ zero_extend 24) |T1@3|)))
(let ((?x9120 (bvadd ?x11 (_ bv4294901762 32))))
(bvugt ?x9120 (_ bv1 32)))))
(assert
(let ((?x9126 (bvand |T1@3| (_ bv128 8))))
(= ?x9126 (_ bv0 8))))
(assert
(let ((?x9 ((_ zero_extend 24) |T1@2|)))
(= ?x9 (_ bv120 32))))
(assert
(let ((?x9 ((_ zero_extend 24) |T1@2|)))
(bvuge ?x9 (_ bv32 32))))
(assert
(let ((?x9 ((_ zero_extend 24) |T1@2|)))
(let (($x9138 (= ?x9 (_ bv32 32))))
(not $x9138))))
(assert
(let ((?x9 ((_ zero_extend 24) |T1@2|)))
(bvsgt ?x9 (_ bv13 32))))
(assert
(let (($x9148 (= |T1@2| (_ bv99 8))))
(not $x9148)))
(assert
(let (($x9152 (= |T1@2| (_ bv60 8))))
(not $x9152)))
(assert
(bvult |T1@2| (_ bv128 8)))
(assert
(bvuge |T1@2| (_ bv32 8)))
(assert
(let (($x9160 (= |T1@2| (_ bv9 8))))
(not $x9160)))
(assert
(let (($x9164 (= |T1@2| (_ bv12 8))))
(not $x9164)))
(assert
(let (($x9168 (= |T1@2| (_ bv13 8))))
(not $x9168)))
(assert
(let (($x9172 (= |T1@2| (_ bv10 8))))
(not $x9172)))
(assert
(let ((?x8608 (bvmul (_ bv4294967295 32) (_ bv104 32))))
(let ((?x9176 ((_ sign_extend 24) |T1@4|)))
(let ((?x9177 (bvadd ?x9176 ?x8608)))
(let (($x9178 (= ?x9177 (_ bv0 32))))
(not $x9178))))))
(assert
(let ((?x8497 (bvmul (_ bv4294967295 32) (_ bv45 32))))
(let ((?x9176 ((_ sign_extend 24) |T1@4|)))
(let ((?x9185 (bvadd ?x9176 ?x8497)))
(let (($x9186 (= ?x9185 (_ bv0 32))))
(not $x9186))))))
(assert
(let ((?x8631 (bvmul (_ bv4294967295 32) (_ bv65 32))))
(let ((?x9176 ((_ sign_extend 24) |T1@4|)))
(let ((?x9193 (bvadd ?x9176 ?x8631)))
(bvugt ?x9193 (_ bv25 32))))))
(assert
(let (($x9200 (= |T4@0| (_ bv3759263696 32))))
(not $x9200)))
(assert
(let ((?x9205 ((_ zero_extend 8) |T1@3|)))
(let (($x9206 (= ?x9205 (_ bv58 16))))
(not $x9206))))
(assert
(let ((?x11 ((_ zero_extend 24) |T1@3|)))
(let (($x9213 (= ?x11 (_ bv77 32))))
(not $x9213))))
(assert
(let ((?x11 ((_ zero_extend 24) |T1@3|)))
(let (($x9219 (= ?x11 (_ bv109 32))))
(not $x9219))))
(assert
(let ((?x11 ((_ zero_extend 24) |T1@3|)))
(bvuge ?x11 (_ bv32 32))))
(assert
(let ((?x11 ((_ zero_extend 24) |T1@3|)))
(let (($x9229 (= ?x11 (_ bv32 32))))
(not $x9229))))
(assert
(let ((?x11 ((_ zero_extend 24) |T1@3|)))
(bvsgt ?x11 (_ bv13 32))))
(assert
(let (($x9239 (= |T1@3| (_ bv99 8))))
(not $x9239)))
(assert
(let (($x9243 (= |T1@3| (_ bv60 8))))
(not $x9243)))
(assert
(bvult |T1@3| (_ bv128 8)))
(assert
(bvuge |T1@3| (_ bv32 8)))
(assert
(let (($x9251 (= |T1@3| (_ bv9 8))))
(not $x9251)))
(assert
(let (($x9255 (= |T1@3| (_ bv12 8))))
(not $x9255)))
(assert
(let (($x9259 (= |T1@3| (_ bv13 8))))
(not $x9259)))
(assert
(let (($x9263 (= |T1@3| (_ bv10 8))))
(not $x9263)))
(assert
(let ((?x363 ((_ zero_extend 24) |T1@4|)))
(let ((?x9267 (bvadd ?x363 (_ bv4294901762 32))))
(bvugt ?x9267 (_ bv1 32)))))
(assert
(let ((?x9273 (bvand |T1@4| (_ bv128 8))))
(= ?x9273 (_ bv0 8))))
(assert
(let ((?x9176 ((_ sign_extend 24) |T1@4|)))
(let (($x9278 (= ?x9176 (_ bv104 32))))
(not $x9278))))
(assert
(let ((?x9176 ((_ sign_extend 24) |T1@4|)))
(let (($x9280 (= ?x9176 (_ bv45 32))))
(not $x9280))))
(assert
(let ((?x9176 ((_ sign_extend 24) |T1@4|)))
(let (($x9282 (= ?x9176 (_ bv0 32))))
(not $x9282))))
(assert
(let ((?x9286 ((_ zero_extend 8) |T1@4|)))
(let (($x9287 (= ?x9286 (_ bv58 16))))
(not $x9287))))
(assert
(let ((?x363 ((_ zero_extend 24) |T1@4|)))
(bvuge ?x363 (_ bv32 32))))
(assert
(let ((?x363 ((_ zero_extend 24) |T1@4|)))
(let (($x9297 (= ?x363 (_ bv32 32))))
(not $x9297))))
(assert
(let ((?x363 ((_ zero_extend 24) |T1@4|)))
(bvsgt ?x363 (_ bv13 32))))
(assert
(let (($x9307 (= |T1@4| (_ bv99 8))))
(not $x9307)))
(assert
(let (($x9311 (= |T1@4| (_ bv60 8))))
(not $x9311)))
(assert
(bvult |T1@4| (_ bv128 8)))
(assert
(bvuge |T1@4| (_ bv32 8)))
(assert
(let (($x9319 (= |T1@4| (_ bv9 8))))
(not $x9319)))
(assert
(let (($x9323 (= |T1@4| (_ bv12 8))))
(not $x9323)))
(assert
(let (($x9327 (= |T1@4| (_ bv13 8))))
(not $x9327)))
(assert
(let (($x9331 (= |T1@4| (_ bv10 8))))
(not $x9331)))
(assert
true)
(check-sat)
(exit)
